NAME : portcgen-18-4
COMMENT : portcgen N=18, seed=4
TYPE : TSP
DIMENSION : 18
EDGE_WEIGHT_TYPE : EUC_2D
NODE_COORD_SECTION
1 58152 -355368
2 -110547 18190
3 193086 -535199
4 83825 -201612
5 -189930 -116953
6 -120855 -233877
7 6119 30308
8 180116 -229921
9 165250 -301245
10 108160 209998
11 364959 390848
12 6150 16470
13 -357710 -225487
14 -212381 -60338
15 191942 -108114
16 -204147 -134451
17 277222 -130921
18 -203922 -115622
